NAME : local_11
TYPE : ATSP
DIMENSION : 31
EDGE_WEIGHT_TYPE : EXPLICIT
EDGE_WEIGHT_FORMAT : FULL_MATRIX
EDGE_WEIGHT_SECTION
0 10000000 10000000 745 10000000 10000000 10000000 10000000 346 306 753 10000000 627 685 10000000 647 951 883 693 888 10000000 377 10000000 10000000 10000000 10000000 966 998 10000000 10000000 10000000 
0 0 10000000 10000000 356 768 616 10000000 10000000 10000000 10000000 10000000 10000000 10000000 916 10000000 10000000 10000000 10000000 10000000 10000000 10000000 977 10000000 192 819 10000000 1040 10000000 10000000 10000000 
0 10000000 0 964 10000000 10000000 10000000 563 10000000 10000000 10000000 10000000 801 10000000 10000000 10000000 10000000 973 882 10000000 561 10000000 620 10000000 10000000 10000000 856 10000000 10000000 704 329 
0 10000000 964 0 10000000 10000000 10000000 10000000 971 930 10000000 10000000 409 895 10000000 10000000 10000000 142 145 10000000 601 566 10000000 10000000 10000000 959 240 746 10000000 10000000 757 
0 356 10000000 10000000 0 462 261 10000000 10000000 10000000 10000000 10000000 10000000 10000000 588 10000000 10000000 10000000 10000000 10000000 10000000 10000000 821 783 348 829 10000000 950 895 899 10000000 
0 768 10000000 10000000 462 0 336 10000000 10000000 10000000 963 873 10000000 665 604 766 10000000 10000000 10000000 779 10000000 887 10000000 509 660 759 10000000 710 524 10000000 10000000 
0 616 10000000 10000000 261 336 0 10000000 10000000 10000000 10000000 828 10000000 1005 366 10000000 10000000 10000000 10000000 10000000 10000000 10000000 777 525 593 948 10000000 1020 655 810 10000000 
0 10000000 563 10000000 10000000 10000000 10000000 0 10000000 10000000 10000000 10000000 720 10000000 850 10000000 522 10000000 932 10000000 939 10000000 431 10000000 10000000 10000000 10000000 10000000 10000000 355 783 
0 10000000 10000000 971 10000000 10000000 10000000 10000000 0 566 430 10000000 945 520 10000000 386 10000000 10000000 958 562 10000000 434 10000000 10000000 10000000 10000000 10000000 969 971 10000000 10000000 
0 10000000 10000000 930 10000000 10000000 10000000 10000000 566 0 960 10000000 688 980 10000000 964 774 10000000 840 10000000 10000000 678 10000000 10000000 10000000 10000000 10000000 10000000 10000000 10000000 10000000 
0 10000000 10000000 10000000 10000000 963 10000000 10000000 430 960 0 10000000 10000000 494 10000000 236 10000000 10000000 10000000 256 10000000 716 10000000 949 10000000 10000000 10000000 10000000 779 10000000 10000000 
0 10000000 10000000 10000000 10000000 873 828 10000000 10000000 10000000 10000000 0 10000000 10000000 567 10000000 10000000 10000000 10000000 896 10000000 10000000 10000000 365 10000000 10000000 10000000 10000000 463 975 10000000 
0 10000000 801 409 10000000 10000000 10000000 720 945 688 10000000 10000000 0 10000000 10000000 10000000 821 520 266 10000000 645 664 992 10000000 10000000 10000000 501 10000000 10000000 994 700 
0 10000000 10000000 895 10000000 665 1038 10000000 520 980 494 10000000 10000000 0 10000000 273 10000000 983 942 507 10000000 411 10000000 973 10000000 775 10000000 522 787 10000000 10000000 
0 916 10000000 10000000 588 604 366 850 10000000 10000000 10000000 567 10000000 10000000 0 10000000 10000000 10000000 10000000 10000000 10000000 10000000 611 416 936 10000000 10000000 10000000 620 584 10000000 
0 10000000 10000000 10000000 10000000 766 10000000 10000000 386 925 236 10000000 10000000 273 10000000 0 10000000 10000000 10000000 274 10000000 526 10000000 876 10000000 10000000 10000000 794 692 10000000 10000000 
0 10000000 10000000 10000000 10000000 10000000 10000000 522 10000000 774 10000000 10000000 821 10000000 10000000 10000000 0 10000000 10000000 10000000 10000000 10000000 862 10000000 10000000 10000000 10000000 10000000 10000000 714 10000000 
0 10000000 973 142 10000000 10000000 10000000 10000000 10000000 10000000 10000000 10000000 520 983 10000000 10000000 10000000 0 259 10000000 546 682 10000000 10000000 10000000 930 155 761 10000000 10000000 731 
0 10000000 882 145 10000000 10000000 10000000 932 958 840 10000000 10000000 266 942 10000000 10000000 10000000 259 0 10000000 570 588 10000000 10000000 10000000 1105 283 854 10000000 10000000 700 
0 10000000 10000000 10000000 10000000 779 10000000 10000000 562 10000000 256 896 10000000 507 10000000 274 10000000 10000000 10000000 0 10000000 767 10000000 714 10000000 10000000 10000000 998 531 10000000 10000000 
0 10000000 561 601 10000000 10000000 10000000 939 10000000 10000000 10000000 10000000 645 10000000 10000000 10000000 10000000 546 570 10000000 0 10000000 10000000 10000000 10000000 10000000 395 10000000 10000000 10000000 239 
0 10000000 10000000 566 10000000 847 10000000 10000000 434 678 716 10000000 664 411 10000000 526 10000000 682 588 767 10000000 0 10000000 10000000 10000000 885 806 627 1031 10000000 10000000 
0 977 620 10000000 821 10000000 777 431 10000000 10000000 10000000 10000000 996 10000000 611 10000000 862 10000000 10000000 10000000 10000000 10000000 0 10000000 10000000 10000000 10000000 10000000 10000000 171 895 
0 10000000 10000000 10000000 783 509 525 10000000 10000000 10000000 949 365 10000000 899 416 868 10000000 10000000 10000000 714 10000000 10000000 10000000 0 10000000 10000000 10000000 10000000 210 946 10000000 
0 192 10000000 10000000 348 660 593 10000000 10000000 10000000 10000000 10000000 10000000 10000000 936 10000000 10000000 10000000 10000000 10000000 10000000 10000000 10000000 10000000 0 660 10000000 830 10000000 10000000 10000000 
0 819 10000000 962 829 759 948 10000000 10000000 10000000 10000000 10000000 10000000 775 10000000 10000000 10000000 930 1062 10000000 10000000 885 10000000 10000000 660 0 1013 280 10000000 10000000 10000000 
0 10000000 856 240 10000000 10000000 10000000 10000000 10000000 10000000 10000000 10000000 501 10000000 10000000 10000000 10000000 155 283 10000000 395 806 10000000 10000000 10000000 1019 0 894 10000000 10000000 592 
0 1080 10000000 746 897 710 1048 10000000 969 10000000 10000000 10000000 10000000 522 10000000 794 10000000 761 854 998 10000000 627 10000000 10000000 830 280 894 0 10000000 10000000 10000000 
0 10000000 10000000 10000000 895 524 655 10000000 991 10000000 779 463 10000000 787 620 692 10000000 10000000 10000000 531 10000000 1075 10000000 210 10000000 10000000 10000000 10000000 0 10000000 10000000 
0 10000000 704 10000000 899 10000000 810 355 10000000 10000000 10000000 975 987 10000000 584 10000000 714 10000000 10000000 10000000 10000000 10000000 171 946 10000000 10000000 10000000 10000000 10000000 0 967 
0 10000000 10000000 10000000 10000000 10000000 10000000 10000000 10000000 10000000 10000000 10000000 10000000 10000000 10000000 10000000 10000000 10000000 10000000 10000000 10000000 10000000 10000000 10000000 10000000 10000000 10000000 10000000 10000000 10000000 0 
EOF